32	0

0	1	2
7	1	3
8	2	4	5
3	1	6
3	1	6
7	2	7	8
10	1	10
3	1	9
1	1	10
4	1	11
6	1	12
9	1	13
8	1	14
4	2	15	16
8	1	17
7	1	17
4	1	18
10	1	19
2	1	20
5	1	21
10	1	22
5	1	23
5	1	24
6	1	25
6	1	26
5	2	27	28
10	2	29	30
8	2	29	30
3	1	31
6	1	31
5	1	32
0	0
